c WMC file for PBN ISCAS/c432_distill_ISCAS/c432_miter written by probABC
p cnf 330 873
40 1 -2 0
-40 -1 0
-40 2 0
41 4 -6 0
-41 -4 0
-41 6 0
42 8 -10 0
-42 -8 0
-42 10 0
43 12 -14 0
-43 -12 0
-43 14 0
44 16 -18 0
-44 -16 0
-44 18 0
45 20 -22 0
-45 -20 0
-45 22 0
46 24 -26 0
-46 -24 0
-46 26 0
47 28 -30 0
-47 -28 0
-47 30 0
48 32 -34 0
-48 -32 0
-48 34 0
49 40 41 0
-49 -40 0
-49 -41 0
50 42 -49 0
-50 -42 0
-50 49 0
51 43 -50 0
-51 -43 0
-51 50 0
52 44 -51 0
-52 -44 0
-52 51 0
53 45 -52 0
-53 -45 0
-53 52 0
54 46 -53 0
-54 -46 0
-54 53 0
55 47 -54 0
-55 -47 0
-55 54 0
56 48 -55 0
-56 -48 0
-56 55 0
57 40 -56 0
-57 -40 0
-57 56 0
58 -40 56 0
-58 40 0
-58 -56 0
59 57 58 0
-59 -57 0
-59 -58 0
60 -2 3 0
-60 2 0
-60 -3 0
61 59 -60 0
-61 -59 0
-61 60 0
62 41 -56 0
-62 -41 0
-62 56 0
63 -41 56 0
-63 41 0
-63 -56 0
64 62 63 0
-64 -62 0
-64 -63 0
65 -6 7 0
-65 6 0
-65 -7 0
66 64 -65 0
-66 -64 0
-66 65 0
67 42 -56 0
-67 -42 0
-67 56 0
68 -42 56 0
-68 42 0
-68 -56 0
69 67 68 0
-69 -67 0
-69 -68 0
70 -10 11 0
-70 10 0
-70 -11 0
71 69 -70 0
-71 -69 0
-71 70 0
72 43 -56 0
-72 -43 0
-72 56 0
73 -43 56 0
-73 43 0
-73 -56 0
74 72 73 0
-74 -72 0
-74 -73 0
75 -14 15 0
-75 14 0
-75 -15 0
76 74 -75 0
-76 -74 0
-76 75 0
77 44 -56 0
-77 -44 0
-77 56 0
78 -44 56 0
-78 44 0
-78 -56 0
79 77 78 0
-79 -77 0
-79 -78 0
80 -18 19 0
-80 18 0
-80 -19 0
81 79 -80 0
-81 -79 0
-81 80 0
82 45 -56 0
-82 -45 0
-82 56 0
83 -45 56 0
-83 45 0
-83 -56 0
84 82 83 0
-84 -82 0
-84 -83 0
85 -22 23 0
-85 22 0
-85 -23 0
86 84 -85 0
-86 -84 0
-86 85 0
87 46 -56 0
-87 -46 0
-87 56 0
88 -46 56 0
-88 46 0
-88 -56 0
89 87 88 0
-89 -87 0
-89 -88 0
90 -26 27 0
-90 26 0
-90 -27 0
91 89 -90 0
-91 -89 0
-91 90 0
92 47 -56 0
-92 -47 0
-92 56 0
93 -47 56 0
-93 47 0
-93 -56 0
94 92 93 0
-94 -92 0
-94 -93 0
95 -30 31 0
-95 30 0
-95 -31 0
96 94 -95 0
-96 -94 0
-96 95 0
97 48 -56 0
-97 -48 0
-97 56 0
98 -48 56 0
-98 48 0
-98 -56 0
99 97 98 0
-99 -97 0
-99 -98 0
100 -34 35 0
-100 34 0
-100 -35 0
101 99 -100 0
-101 -99 0
-101 100 0
102 61 66 0
-102 -61 0
-102 -66 0
103 71 -102 0
-103 -71 0
-103 102 0
104 76 -103 0
-104 -76 0
-104 103 0
105 81 -104 0
-105 -81 0
-105 104 0
106 86 -105 0
-106 -86 0
-106 105 0
107 91 -106 0
-107 -91 0
-107 106 0
108 96 -107 0
-108 -96 0
-108 107 0
109 101 -108 0
-109 -101 0
-109 108 0
110 61 -109 0
-110 -61 0
-110 109 0
111 -61 109 0
-111 61 0
-111 -109 0
112 110 111 0
-112 -110 0
-112 -111 0
113 -2 5 0
-113 2 0
-113 -5 0
114 59 -113 0
-114 -59 0
-114 113 0
115 112 -114 0
-115 -112 0
-115 114 0
116 66 -109 0
-116 -66 0
-116 109 0
117 -66 109 0
-117 66 0
-117 -109 0
118 116 117 0
-118 -116 0
-118 -117 0
119 -6 9 0
-119 6 0
-119 -9 0
120 64 -119 0
-120 -64 0
-120 119 0
121 118 -120 0
-121 -118 0
-121 120 0
122 71 -109 0
-122 -71 0
-122 109 0
123 -71 109 0
-123 71 0
-123 -109 0
124 122 123 0
-124 -122 0
-124 -123 0
125 -10 13 0
-125 10 0
-125 -13 0
126 69 -125 0
-126 -69 0
-126 125 0
127 124 -126 0
-127 -124 0
-127 126 0
128 76 -109 0
-128 -76 0
-128 109 0
129 -76 109 0
-129 76 0
-129 -109 0
130 128 129 0
-130 -128 0
-130 -129 0
131 -14 17 0
-131 14 0
-131 -17 0
132 74 -131 0
-132 -74 0
-132 131 0
133 -37 132 0
-133 37 0
-133 -132 0
134 37 -132 0
-134 -37 0
-134 132 0
135 133 134 0
-135 -133 0
-135 -134 0
136 130 135 0
-136 -130 0
-136 -135 0
137 81 -109 0
-137 -81 0
-137 109 0
138 -81 109 0
-138 81 0
-138 -109 0
139 137 138 0
-139 -137 0
-139 -138 0
140 -18 21 0
-140 18 0
-140 -21 0
141 79 -140 0
-141 -79 0
-141 140 0
142 139 -141 0
-142 -139 0
-142 141 0
143 86 -109 0
-143 -86 0
-143 109 0
144 -86 109 0
-144 86 0
-144 -109 0
145 143 144 0
-145 -143 0
-145 -144 0
146 -22 25 0
-146 22 0
-146 -25 0
147 84 -146 0
-147 -84 0
-147 146 0
148 145 -147 0
-148 -145 0
-148 147 0
149 91 -109 0
-149 -91 0
-149 109 0
150 -91 109 0
-150 91 0
-150 -109 0
151 149 150 0
-151 -149 0
-151 -150 0
152 -26 29 0
-152 26 0
-152 -29 0
153 89 -152 0
-153 -89 0
-153 152 0
154 151 -153 0
-154 -151 0
-154 153 0
155 96 -109 0
-155 -96 0
-155 109 0
156 -96 109 0
-156 96 0
-156 -109 0
157 155 156 0
-157 -155 0
-157 -156 0
158 -30 33 0
-158 30 0
-158 -33 0
159 94 -158 0
-159 -94 0
-159 158 0
160 157 -159 0
-160 -157 0
-160 159 0
161 101 -109 0
-161 -101 0
-161 109 0
162 -101 109 0
-162 101 0
-162 -109 0
163 161 162 0
-163 -161 0
-163 -162 0
164 -34 36 0
-164 34 0
-164 -36 0
165 99 -164 0
-165 -99 0
-165 164 0
166 163 -165 0
-166 -163 0
-166 165 0
167 115 121 0
-167 -115 0
-167 -121 0
168 127 -167 0
-168 -127 0
-168 167 0
169 136 -168 0
-169 -136 0
-169 168 0
170 142 -169 0
-170 -142 0
-170 169 0
171 148 -170 0
-171 -148 0
-171 170 0
172 154 -171 0
-172 -154 0
-172 171 0
173 160 -172 0
-173 -160 0
-173 172 0
174 166 -173 0
-174 -166 0
-174 173 0
175 -1 56 0
-175 1 0
-175 -56 0
176 -3 109 0
-176 3 0
-176 -109 0
177 -5 174 0
-177 5 0
-177 -174 0
178 -2 175 0
-178 2 0
-178 -175 0
179 176 -178 0
-179 -176 0
-179 178 0
180 177 -179 0
-180 -177 0
-180 179 0
181 -4 56 0
-181 4 0
-181 -56 0
182 -7 109 0
-182 7 0
-182 -109 0
183 -9 174 0
-183 9 0
-183 -174 0
184 181 182 0
-184 -181 0
-184 -182 0
185 183 -184 0
-185 -183 0
-185 184 0
186 -6 -185 0
-186 6 0
-186 185 0
187 -8 56 0
-187 8 0
-187 -56 0
188 -11 109 0
-188 11 0
-188 -109 0
189 -13 174 0
-189 13 0
-189 -174 0
190 187 188 0
-190 -187 0
-190 -188 0
191 189 -190 0
-191 -189 0
-191 190 0
192 -10 -191 0
-192 10 0
-192 191 0
193 -12 56 0
-193 12 0
-193 -56 0
194 -15 109 0
-194 15 0
-194 -109 0
195 -17 174 0
-195 17 0
-195 -174 0
196 193 194 0
-196 -193 0
-196 -194 0
197 195 -196 0
-197 -195 0
-197 196 0
198 -14 -197 0
-198 14 0
-198 197 0
199 -16 56 0
-199 16 0
-199 -56 0
200 -19 109 0
-200 19 0
-200 -109 0
201 -21 174 0
-201 21 0
-201 -174 0
202 199 200 0
-202 -199 0
-202 -200 0
203 201 -202 0
-203 -201 0
-203 202 0
204 -18 -203 0
-204 18 0
-204 203 0
205 -20 56 0
-205 20 0
-205 -56 0
206 -23 109 0
-206 23 0
-206 -109 0
207 -25 174 0
-207 25 0
-207 -174 0
208 205 206 0
-208 -205 0
-208 -206 0
209 207 -208 0
-209 -207 0
-209 208 0
210 -22 -209 0
-210 22 0
-210 209 0
211 -24 56 0
-211 24 0
-211 -56 0
212 -27 109 0
-212 27 0
-212 -109 0
213 -29 174 0
-213 29 0
-213 -174 0
214 211 212 0
-214 -211 0
-214 -212 0
215 213 -214 0
-215 -213 0
-215 214 0
216 -26 -215 0
-216 26 0
-216 215 0
217 -28 56 0
-217 28 0
-217 -56 0
218 -31 109 0
-218 31 0
-218 -109 0
219 -33 174 0
-219 33 0
-219 -174 0
220 217 218 0
-220 -217 0
-220 -218 0
221 219 -220 0
-221 -219 0
-221 220 0
222 -30 -221 0
-222 30 0
-222 221 0
223 -32 56 0
-223 32 0
-223 -56 0
224 -35 109 0
-224 35 0
-224 -109 0
225 -36 174 0
-225 36 0
-225 -174 0
226 223 224 0
-226 -223 0
-226 -224 0
227 225 -226 0
-227 -225 0
-227 226 0
228 -34 -227 0
-228 34 0
-228 227 0
229 186 192 0
-229 -186 0
-229 -192 0
230 198 -229 0
-230 -198 0
-230 229 0
231 204 -230 0
-231 -204 0
-231 230 0
232 210 -231 0
-232 -210 0
-232 231 0
233 216 -232 0
-233 -216 0
-233 232 0
234 222 -233 0
-234 -222 0
-234 233 0
235 -38 234 0
-235 38 0
-235 -234 0
236 38 -234 0
-236 -38 0
-236 234 0
237 235 236 0
-237 -235 0
-237 -236 0
238 228 237 0
-238 -228 0
-238 -237 0
239 180 238 0
-239 -180 0
-239 -238 0
240 192 -198 0
-240 -192 0
-240 198 0
241 -229 240 0
-241 229 0
-241 -240 0
242 204 -241 0
-242 -204 0
-242 241 0
243 192 198 0
-243 -192 0
-243 -198 0
244 -210 -243 0
-244 210 0
-244 243 0
245 204 -244 0
-245 -204 0
-245 244 0
246 198 204 0
-246 -198 0
-246 -204 0
247 -216 -246 0
-247 216 0
-247 246 0
248 -229 245 0
-248 229 0
-248 -245 0
249 247 -248 0
-249 -247 0
-249 248 0
250 216 -243 0
-250 -216 0
-250 243 0
251 -222 -250 0
-251 222 0
-251 250 0
252 186 240 0
-252 -186 0
-252 -240 0
253 245 -252 0
-253 -245 0
-253 252 0
254 251 -253 0
-254 -251 0
-254 253 0
255 130 -132 0
-255 -130 0
-255 132 0
256 -168 255 0
-256 168 0
-256 -255 0
257 142 -256 0
-257 -142 0
-257 256 0
258 148 -257 0
-258 -148 0
-258 257 0
259 154 -258 0
-259 -154 0
-259 258 0
260 160 -259 0
-260 -160 0
-260 259 0
261 166 -260 0
-261 -166 0
-261 260 0
262 -5 261 0
-262 5 0
-262 -261 0
263 -179 262 0
-263 179 0
-263 -262 0
264 -9 261 0
-264 9 0
-264 -261 0
265 -184 264 0
-265 184 0
-265 -264 0
266 -6 -265 0
-266 6 0
-266 265 0
267 -13 261 0
-267 13 0
-267 -261 0
268 -190 267 0
-268 190 0
-268 -267 0
269 -10 -268 0
-269 10 0
-269 268 0
270 -17 261 0
-270 17 0
-270 -261 0
271 -196 270 0
-271 196 0
-271 -270 0
272 -14 -271 0
-272 14 0
-272 271 0
273 -21 261 0
-273 21 0
-273 -261 0
274 -202 273 0
-274 202 0
-274 -273 0
275 -18 -274 0
-275 18 0
-275 274 0
276 -25 261 0
-276 25 0
-276 -261 0
277 -208 276 0
-277 208 0
-277 -276 0
278 -22 -277 0
-278 22 0
-278 277 0
279 -29 261 0
-279 29 0
-279 -261 0
280 -214 279 0
-280 214 0
-280 -279 0
281 -26 -280 0
-281 26 0
-281 280 0
282 -33 261 0
-282 33 0
-282 -261 0
283 -220 282 0
-283 220 0
-283 -282 0
284 -30 -283 0
-284 30 0
-284 283 0
285 -36 261 0
-285 36 0
-285 -261 0
286 -226 285 0
-286 226 0
-286 -285 0
287 -34 -286 0
-287 34 0
-287 286 0
288 266 269 0
-288 -266 0
-288 -269 0
289 272 -288 0
-289 -272 0
-289 288 0
290 275 -289 0
-290 -275 0
-290 289 0
291 278 -290 0
-291 -278 0
-291 290 0
292 281 -291 0
-292 -281 0
-292 291 0
293 284 -292 0
-293 -284 0
-293 292 0
294 287 -293 0
-294 -287 0
-294 293 0
295 263 294 0
-295 -263 0
-295 -294 0
296 269 -272 0
-296 -269 0
-296 272 0
297 -288 296 0
-297 288 0
-297 -296 0
298 275 -297 0
-298 -275 0
-298 297 0
299 269 272 0
-299 -269 0
-299 -272 0
300 -278 -299 0
-300 278 0
-300 299 0
301 275 -300 0
-301 -275 0
-301 300 0
302 272 275 0
-302 -272 0
-302 -275 0
303 -281 -302 0
-303 281 0
-303 302 0
304 -288 301 0
-304 288 0
-304 -301 0
305 303 -304 0
-305 -303 0
-305 304 0
306 281 -299 0
-306 -281 0
-306 299 0
307 -284 -306 0
-307 284 0
-307 306 0
308 266 296 0
-308 -266 0
-308 -296 0
309 301 -308 0
-309 -301 0
-309 308 0
310 307 -309 0
-310 -307 0
-310 309 0
311 -174 261 0
-311 174 0
-311 -261 0
312 174 -261 0
-312 -174 0
-312 261 0
313 311 312 0
-313 -311 0
-313 -312 0
314 239 -295 0
-314 -239 0
-314 295 0
315 -239 295 0
-315 239 0
-315 -295 0
316 314 315 0
-316 -314 0
-316 -315 0
317 -242 298 0
-317 242 0
-317 -298 0
318 242 -298 0
-318 -242 0
-318 298 0
319 317 318 0
-319 -317 0
-319 -318 0
320 -249 305 0
-320 249 0
-320 -305 0
321 249 -305 0
-321 -249 0
-321 305 0
322 320 321 0
-322 -320 0
-322 -321 0
323 -254 310 0
-323 254 0
-323 -310 0
324 254 -310 0
-324 -254 0
-324 310 0
325 323 324 0
-325 -323 0
-325 -324 0
326 -316 -319 0
-326 316 0
-326 319 0
327 -322 -325 0
-327 322 0
-327 325 0
328 -326 -327 0
-328 326 0
-328 327 0
329 -313 -328 0
-329 313 0
-329 328 0
39 329 0
-39 -329 0
39 0
w 1 0.500000
w 2 0.500000
w 3 0.500000
w 4 0.500000
w 5 0.500000
w 6 0.500000
w 7 0.500000
w 8 0.500000
w 9 0.500000
w 10 0.500000
w 11 0.500000
w 12 0.500000
w 13 0.500000
w 14 0.500000
w 15 0.500000
w 16 0.500000
w 17 0.500000
w 18 0.500000
w 19 0.500000
w 20 0.500000
w 21 0.500000
w 22 0.500000
w 23 0.500000
w 24 0.500000
w 25 0.500000
w 26 0.500000
w 27 0.500000
w 28 0.500000
w 29 0.500000
w 30 0.500000
w 31 0.500000
w 32 0.500000
w 33 0.500000
w 34 0.500000
w 35 0.500000
w 36 0.500000
w 37 0.125000
w 38 0.125000
w 40 -1
w 41 -1
w 42 -1
w 43 -1
w 44 -1
w 45 -1
w 46 -1
w 47 -1
w 48 -1
w 49 -1
w 50 -1
w 51 -1
w 52 -1
w 53 -1
w 54 -1
w 55 -1
w 56 -1
w 57 -1
w 58 -1
w 59 -1
w 60 -1
w 61 -1
w 62 -1
w 63 -1
w 64 -1
w 65 -1
w 66 -1
w 67 -1
w 68 -1
w 69 -1
w 70 -1
w 71 -1
w 72 -1
w 73 -1
w 74 -1
w 75 -1
w 76 -1
w 77 -1
w 78 -1
w 79 -1
w 80 -1
w 81 -1
w 82 -1
w 83 -1
w 84 -1
w 85 -1
w 86 -1
w 87 -1
w 88 -1
w 89 -1
w 90 -1
w 91 -1
w 92 -1
w 93 -1
w 94 -1
w 95 -1
w 96 -1
w 97 -1
w 98 -1
w 99 -1
w 100 -1
w 101 -1
w 102 -1
w 103 -1
w 104 -1
w 105 -1
w 106 -1
w 107 -1
w 108 -1
w 109 -1
w 110 -1
w 111 -1
w 112 -1
w 113 -1
w 114 -1
w 115 -1
w 116 -1
w 117 -1
w 118 -1
w 119 -1
w 120 -1
w 121 -1
w 122 -1
w 123 -1
w 124 -1
w 125 -1
w 126 -1
w 127 -1
w 128 -1
w 129 -1
w 130 -1
w 131 -1
w 132 -1
w 133 -1
w 134 -1
w 135 -1
w 136 -1
w 137 -1
w 138 -1
w 139 -1
w 140 -1
w 141 -1
w 142 -1
w 143 -1
w 144 -1
w 145 -1
w 146 -1
w 147 -1
w 148 -1
w 149 -1
w 150 -1
w 151 -1
w 152 -1
w 153 -1
w 154 -1
w 155 -1
w 156 -1
w 157 -1
w 158 -1
w 159 -1
w 160 -1
w 161 -1
w 162 -1
w 163 -1
w 164 -1
w 165 -1
w 166 -1
w 167 -1
w 168 -1
w 169 -1
w 170 -1
w 171 -1
w 172 -1
w 173 -1
w 174 -1
w 175 -1
w 176 -1
w 177 -1
w 178 -1
w 179 -1
w 180 -1
w 181 -1
w 182 -1
w 183 -1
w 184 -1
w 185 -1
w 186 -1
w 187 -1
w 188 -1
w 189 -1
w 190 -1
w 191 -1
w 192 -1
w 193 -1
w 194 -1
w 195 -1
w 196 -1
w 197 -1
w 198 -1
w 199 -1
w 200 -1
w 201 -1
w 202 -1
w 203 -1
w 204 -1
w 205 -1
w 206 -1
w 207 -1
w 208 -1
w 209 -1
w 210 -1
w 211 -1
w 212 -1
w 213 -1
w 214 -1
w 215 -1
w 216 -1
w 217 -1
w 218 -1
w 219 -1
w 220 -1
w 221 -1
w 222 -1
w 223 -1
w 224 -1
w 225 -1
w 226 -1
w 227 -1
w 228 -1
w 229 -1
w 230 -1
w 231 -1
w 232 -1
w 233 -1
w 234 -1
w 235 -1
w 236 -1
w 237 -1
w 238 -1
w 239 -1
w 240 -1
w 241 -1
w 242 -1
w 243 -1
w 244 -1
w 245 -1
w 246 -1
w 247 -1
w 248 -1
w 249 -1
w 250 -1
w 251 -1
w 252 -1
w 253 -1
w 254 -1
w 255 -1
w 256 -1
w 257 -1
w 258 -1
w 259 -1
w 260 -1
w 261 -1
w 262 -1
w 263 -1
w 264 -1
w 265 -1
w 266 -1
w 267 -1
w 268 -1
w 269 -1
w 270 -1
w 271 -1
w 272 -1
w 273 -1
w 274 -1
w 275 -1
w 276 -1
w 277 -1
w 278 -1
w 279 -1
w 280 -1
w 281 -1
w 282 -1
w 283 -1
w 284 -1
w 285 -1
w 286 -1
w 287 -1
w 288 -1
w 289 -1
w 290 -1
w 291 -1
w 292 -1
w 293 -1
w 294 -1
w 295 -1
w 296 -1
w 297 -1
w 298 -1
w 299 -1
w 300 -1
w 301 -1
w 302 -1
w 303 -1
w 304 -1
w 305 -1
w 306 -1
w 307 -1
w 308 -1
w 309 -1
w 310 -1
w 311 -1
w 312 -1
w 313 -1
w 314 -1
w 315 -1
w 316 -1
w 317 -1
w 318 -1
w 319 -1
w 320 -1
w 321 -1
w 322 -1
w 323 -1
w 324 -1
w 325 -1
w 326 -1
w 327 -1
w 328 -1
w 329 -1
w 39 -1
